NAME 
ROWS
 N  OBJ
 G  R0      
 G  R1      
 G  R2      
 G  R3      
 G  R4      
 G  R5      
 G  R6      
 G  R7      
 G  R8      
 G  R9      
 G  R10     
 G  R11     
 G  R12     
 G  R13     
 G  R14     
COLUMNS
    x0        OBJ       1
    x0        R0        1
    x0        R1        1
    x0        R2        1
    x0        R3        1
    x0        R6        1
    x0        R9        4
    x0        R10       1
    x0        R11       3
    x0        R12       2
    x0        R13       4
    x0        R14       3
    x1        OBJ       1
    x1        R0        1
    x1        R1        1
    x1        R2        1
    x1        R4        1
    x1        R7        1
    x1        R9        4
    x1        R10       2
    x1        R11       4
    x1        R12       3
    x1        R13       4
    x1        R14       4
    x2        OBJ       1
    x2        R0        1
    x2        R1        1
    x2        R2        1
    x2        R5        1
    x2        R8        1
    x2        R9        4
    x2        R10       2
    x2        R11       4
    x2        R12       3
    x2        R13       3
    x2        R14       5
    x3        OBJ       1
    x3        R0        1
    x3        R3        1
    x3        R4        1
    x3        R5        1
    x3        R6        1
    x3        R9        4
    x3        R10       2
    x3        R11       4
    x3        R12       3
    x3        R13       4
    x3        R14       4
    x4        OBJ       1
    x4        R1        1
    x4        R3        1
    x4        R4        1
    x4        R5        1
    x4        R7        1
    x4        R9        4
    x4        R10       2
    x4        R11       4
    x4        R12       3
    x4        R13       4
    x4        R14       4
    x5        OBJ       1
    x5        R2        1
    x5        R3        1
    x5        R4        1
    x5        R5        1
    x5        R8        1
    x5        R9        4
    x5        R10       2
    x5        R11       4
    x5        R12       3
    x5        R13       4
    x5        R14       5
    x6        OBJ       1
    x6        R0        1
    x6        R3        1
    x6        R6        1
    x6        R7        1
    x6        R8        1
    x6        R9        4
    x6        R10       2
    x6        R11       4
    x6        R12       3
    x6        R13       4
    x6        R14       4
    x7        OBJ       1
    x7        R1        1
    x7        R4        1
    x7        R6        1
    x7        R7        1
    x7        R8        1
    x7        R9        4
    x7        R10       2
    x7        R11       4
    x7        R12       3
    x7        R13       4
    x7        R14       4
    x8        OBJ       1
    x8        R2        1
    x8        R5        1
    x8        R6        1
    x8        R7        1
    x8        R8        1
    x8        R9        4
    x8        R10       2
    x8        R11       4
    x8        R12       3
    x8        R13       4
    x8        R14       5
RHS
    RHS1      R0        1
    RHS1      R1        1
    RHS1      R2        1
    RHS1      R3        1
    RHS1      R4        1
    RHS1      R5        1
    RHS1      R6        1
    RHS1      R7        1
    RHS1      R8        1
    RHS1      R9        8
    RHS1      R10       4
    RHS1      R11       8
    RHS1      R12       6
    RHS1      R13       8
    RHS1      R14       9
BOUNDS
 UP BND1      x0        1
 UP BND1      x1        1
 UP BND1      x2        1
 UP BND1      x3        1
 UP BND1      x4        1
 UP BND1      x5        1
 UP BND1      x6        1
 UP BND1      x7        1
 UP BND1      x8        1
ENDATA
